unsat
(:max-memory         18.52
 :memory             18.43
 :nlsat-arith-var    3
 :nlsat-atoms        14
 :nlsat-bool-var     1
 :nlsat-clauses      11
 :nlsat-conflicts    3
 :nlsat-propagations 11
 :nlsat-stages       3
 :num-allocs         57873
 :rlimit-count       4561
 :time               0.00
 :total-time         0.02)
